12 40 6 10
20 11 19 14 17 3 6 13 10 16 4 17 19 18 9 1 20 16 17 4 1 1 19 8 9 18 4 17 7 18 10 11 5 7 19 16 11 18 15 9 
4.48 3.77 6.68 6.64 7.37 0.93 3.27 3.07 2.1 3.48 5.92 6.37 5.15 6.17 7.16 5.31 6.24 3.34 7.52 5.68 1.99 5.56 3.54 6.28 6.81 1.62 4.95 1.91 3 5.69 3.94 6.87 4.02 4.03 3.72 5.42 4.73 2.85 0.09 3.13 
2.77 1.19 1.93 4.16 2.8 7.96 2.64 5.48 0.91 1.01 6.49 2.67 6.65 4.17 2.35 6.02 5.2 7.22 6.09 4.67 7.61 2.16 6.87 4 0.92 5.22 4.16 3.63 1.28 5.41 6.99 4.55 5.87 7.83 0.76 5.63 7.73 5.02 7.27 2.34 
5.28 5.14 7.29 0.06 1.34 5.67 0.42 5.83 0.8 6.31 0.52 4.66 2.05 6.14 2.74 5.11 1.04 6.86 4.34 3.29 5.99 4.36 2.5 6.32 3.48 4.07 4.02 6.79 3.18 3.62 6.75 1.39 5.31 7.19 1.26 2.11 4.54 2.5 7.36 2.06 
5.03 3.19 4.64 5.61 6.71 7.74 3.18 0.06 0.16 1.17 6.7 7.5 8 5.26 2.24 7.38 3.41 5.98 0.35 5.16 6.45 4.63 7.3 5.61 5.41 5.79 1.52 6.33 6.45 2.69 3.41 6.64 4.05 0.47 6.21 0.01 6.56 6.31 7.42 3.49 
6.67 2.33 6.37 6.12 1.3 3.47 0.51 1.51 0.01 3.65 0.54 0.35 2.28 1.83 4.66 0.97 7.22 0.33 1.31 7.25 6.98 6.92 5.12 6.52 0.41 0.25 7.83 2.15 4.33 5.29 2.66 2.6 7.01 4.82 5.68 4.54 3.02 1.92 3.69 4.52 
2.74 6.5 0.64 5.83 4.97 1.87 6.31 5.75 6.89 6.09 6.17 4.61 5.73 0.97 7.47 6.12 0.48 6.22 2.68 7.96 6.06 0.51 7.52 7.93 0.37 3.18 1.16 0.03 3.5 7.87 5.13 1.72 5.61 6.88 7.11 4.42 4.22 3.38 3.96 2.33 
4 4 4 4 4 4 4 4 4 4 4 4 4 4 4 4 4 4 4 4 4 4 4 4 4 4 4 4 4 4 4 4 4 4 4 4 4 4 4 4 
7.24 5.38 7.09 4.25 5.59 5.98 4.59 6.89 1.47 7.82 1.46 4.08 7.93 2.81 2.95 2.44 1.35 6.88 2.41 3.17 2.2 5.24 1.2 5.54 0.3 4.93 1.86 7.74 5.94 0.41 2.98 7.37 2.13 0.93 4.13 2.81 1.85 4.31 4.83 4.35 
6.42 0.33 2.74 6.03 3.65 4.88 5.68 6.09 7.25 3.18 1.15 2.87 4.41 6.74 1.95 2.3 0.13 0.38 4.14 5.42 4.9 4.87 4.07 0.55 7.43 6.35 7.46 4.54 2.09 6.03 3.22 3.61 3.39 0.27 6.14 1.32 5.97 6.92 5.5 4.37 
6.59 7.36 1.66 0.9 3.48 2.53 2.3 4.09 3.81 0.54 3.35 3.65 2.11 1.88 2.89 0.6 7.84 6.68 5.62 0.88 7.89 6.29 4.58 3.5 6.6 7.63 2.88 6.63 7.8 4.16 1.81 7.88 1.82 4.64 3.05 2.52 6.8 2.94 6.53 7.6 
1.41 5.02 2.82 1.42 6.34 4.38 0.61 4.42 6.82 4.25 7.42 1.19 2.38 2.02 1.34 0.61 2.37 7.65 3.62 2.98 1.2 0.83 1.56 5.98 4.48 5.28 2.38 2.24 4.32 3.35 5.89 7.57 0.78 6.39 1.82 7.48 3.23 5.24 4.34 2.77 
3.68 0.3 6.15 7.22 1.83 0.09 7.67 3.25 2.82 5.11 6.04 2.26 5.56 6.28 1.27 1.63 5.45 2.16 5.95 1.67 5.7 4.71 4.09 0.5 2.67 7 7.53 2.58 2.89 4.38 1.44 7.7 2.06 6.96 4.61 3.13 7.13 0.76 7.62 6.06 
1 1 1 1 1 1 1 1 1 1 1 1 1 1 1 1 1 1 1 1 1 1 1 1 1 1 1 1 1 1 1 1 1 1 1 1 1 1 1 1 
1 1 1 1 1 1 1 1 1 1 1 1 1 1 1 1 1 1 1 1 1 1 1 1 1 1 1 1 1 1 1 1 1 1 1 1 1 1 1 1 
1 1 1 1 1 1 1 1 1 1 1 1 1 1 1 1 1 1 1 1 1 1 1 1 1 1 1 1 1 1 1 1 1 1 1 1 1 1 1 1 
1 1 1 1 1 1 1 1 1 1 1 1 1 1 1 1 1 1 1 1 1 1 1 1 1 1 1 1 1 1 1 1 1 1 1 1 1 1 1 1 
1 1 1 1 1 1 1 1 1 1 1 1 1 1 1 1 1 1 1 1 1 1 1 1 1 1 1 1 1 1 1 1 1 1 1 1 1 1 1 1 
1 1 1 1 1 1 1 1 1 1 1 1 1 1 1 1 1 1 1 1 1 1 1 1 1 1 1 1 1 1 1 1 1 1 1 1 1 1 1 1 
1 1 1 1 1 1 1 1 1 1 1 1 1 1 1 1 1 1 1 1 1 1 1 1 1 1 1 1 1 1 1 1 1 1 1 1 1 1 1 1 
1 1 1 1 1 1 1 1 1 1 1 1 1 1 1 1 1 1 1 1 1 1 1 1 1 1 1 1 1 1 1 1 1 1 1 1 1 1 1 1 
1 1 1 1 1 1 1 1 1 1 1 1 1 1 1 1 1 1 1 1 1 1 1 1 1 1 1 1 1 1 1 1 1 1 1 1 1 1 1 1 
1 1 1 1 1 1 1 1 1 1 1 1 1 1 1 1 1 1 1 1 1 1 1 1 1 1 1 1 1 1 1 1 1 1 1 1 1 1 1 1 
1 1 1 1 1 1 1 1 1 1 1 1 1 1 1 1 1 1 1 1 1 1 1 1 1 1 1 1 1 1 1 1 1 1 1 1 1 1 1 1 
1 1 1 1 1 1 1 1 1 1 1 1 1 1 1 1 1 1 1 1 1 1 1 1 1 1 1 1 1 1 1 1 1 1 1 1 1 1 1 1 
0.01 0.01 0.01 0.01 0.01 0.01 0.01 0.01 0.01 0.01 0.01 0.01 0.01 0.01 0.01 0.01 0.01 0.01 0.01 0.01 0.01 0.01 0.01 0.01 0.01 0.01 0.01 0.01 0.01 0.01 0.01 0.01 0.01 0.01 0.01 0.01 0.01 0.01 0.01 0.01 
0.02 0.02 0.02 0.02 0.02 0.02 0.02 0.02 0.02 0.02 0.02 0.02 0.02 0.02 0.02 0.02 0.02 0.02 0.02 0.02 0.02 0.02 0.02 0.02 0.02 0.02 0.02 0.02 0.02 0.02 0.02 0.02 0.02 0.02 0.02 0.02 0.02 0.02 0.02 0.02 
0.03 0.03 0.03 0.03 0.03 0.03 0.03 0.03 0.03 0.03 0.03 0.03 0.03 0.03 0.03 0.03 0.03 0.03 0.03 0.03 0.03 0.03 0.03 0.03 0.03 0.03 0.03 0.03 0.03 0.03 0.03 0.03 0.03 0.03 0.03 0.03 0.03 0.03 0.03 0.03 
0.04 0.04 0.04 0.04 0.04 0.04 0.04 0.04 0.04 0.04 0.04 0.04 0.04 0.04 0.04 0.04 0.04 0.04 0.04 0.04 0.04 0.04 0.04 0.04 0.04 0.04 0.04 0.04 0.04 0.04 0.04 0.04 0.04 0.04 0.04 0.04 0.04 0.04 0.04 0.04 
0.05 0.05 0.05 0.05 0.05 0.05 0.05 0.05 0.05 0.05 0.05 0.05 0.05 0.05 0.05 0.05 0.05 0.05 0.05 0.05 0.05 0.05 0.05 0.05 0.05 0.05 0.05 0.05 0.05 0.05 0.05 0.05 0.05 0.05 0.05 0.05 0.05 0.05 0.05 0.05 
0.06 0.06 0.06 0.06 0.06 0.06 0.06 0.06 0.06 0.06 0.06 0.06 0.06 0.06 0.06 0.06 0.06 0.06 0.06 0.06 0.06 0.06 0.06 0.06 0.06 0.06 0.06 0.06 0.06 0.06 0.06 0.06 0.06 0.06 0.06 0.06 0.06 0.06 0.06 0.06 
0.07 0.07 0.07 0.07 0.07 0.07 0.07 0.07 0.07 0.07 0.07 0.07 0.07 0.07 0.07 0.07 0.07 0.07 0.07 0.07 0.07 0.07 0.07 0.07 0.07 0.07 0.07 0.07 0.07 0.07 0.07 0.07 0.07 0.07 0.07 0.07 0.07 0.07 0.07 0.07 
0.2 0.2 0.2 0.2 0.2 0.2 0.2 0.2 0.2 0.2 0.2 0.2 0.2 0.2 0.2 0.2 0.2 0.2 0.2 0.2 0.2 0.2 0.2 0.2 0.2 0.2 0.2 0.2 0.2 0.2 0.2 0.2 0.2 0.2 0.2 0.2 0.2 0.2 0.2 0.2 
0.4 0.4 0.4 0.4 0.4 0.4 0.4 0.4 0.4 0.4 0.4 0.4 0.4 0.4 0.4 0.4 0.4 0.4 0.4 0.4 0.4 0.4 0.4 0.4 0.4 0.4 0.4 0.4 0.4 0.4 0.4 0.4 0.4 0.4 0.4 0.4 0.4 0.4 0.4 0.4 
0.6 0.6 0.6 0.6 0.6 0.6 0.6 0.6 0.6 0.6 0.6 0.6 0.6 0.6 0.6 0.6 0.6 0.6 0.6 0.6 0.6 0.6 0.6 0.6 0.6 0.6 0.6 0.6 0.6 0.6 0.6 0.6 0.6 0.6 0.6 0.6 0.6 0.6 0.6 0.6 
0.8 0.8 0.8 0.8 0.8 0.8 0.8 0.8 0.8 0.8 0.8 0.8 0.8 0.8 0.8 0.8 0.8 0.8 0.8 0.8 0.8 0.8 0.8 0.8 0.8 0.8 0.8 0.8 0.8 0.8 0.8 0.8 0.8 0.8 0.8 0.8 0.8 0.8 0.8 0.8 
1 1 1 1 1 1 1 1 1 1 1 1 1 1 1 1 1 1 1 1 1 1 1 1 1 1 1 1 1 1 1 1 1 1 1 1 1 1 1 1 
